%nproc=28
%mem=120GB
%chk=/gscratch/ilahie/mccoygrp/coire_hocl/oop_s_rOH_opt/clhod/clhod_0_sp.chk
#p pop=NBO opt=(z-matrix) mp2/aug-cc-pvtz density=current

title

-1 1
O
X       1       10.
H(iso=2)        1       r1      2       90.
Cl      1       r2      2       90.     3       a1
H       1       r3      2       oop     3       a1
Variables
 r1=0.96061628 F
 r2=3.08954942 F
 r3=0.99260192
 a1=101.71720655 F
 OOP= 90.

--LINK1--

%nproc=28
%mem=120GB
%chk=/gscratch/ilahie/mccoygrp/coire_hocl/oop_s_rOH_opt/clhod/clhod_5_sp.chk
#p pop=NBO opt=(z-matrix) mp2/aug-cc-pvtz density=current

title

-1 1
O
X       1       10.
H(iso=2)        1       r1      2       90.
Cl      1       r2      2       90.     3       a1
H       1       r3      2       oop     3       a1
Variables
 r1=0.96061628 F
 r2=3.08954942 F
 r3=0.99260192
 a1=101.71720655 F
 OOP= 85.

--LINK1--

%nproc=28
%mem=120GB
%chk=/gscratch/ilahie/mccoygrp/coire_hocl/oop_s_rOH_opt/clhod/clhod_10_sp.chk
#p pop=NBO opt=(z-matrix) mp2/aug-cc-pvtz density=current

title

-1 1
O
X       1       10.
H(iso=2)        1       r1      2       90.
Cl      1       r2      2       90.     3       a1
H       1       r3      2       oop     3       a1
Variables
 r1=0.96061628 F
 r2=3.08954942 F
 r3=0.99260192
 a1=101.71720655 F
 OOP= 80.

--LINK1--

%nproc=28
%mem=120GB
%chk=/gscratch/ilahie/mccoygrp/coire_hocl/oop_s_rOH_opt/clhod/clhod_15_sp.chk
#p pop=NBO opt=(z-matrix) mp2/aug-cc-pvtz density=current

title

-1 1
O
X       1       10.
H(iso=2)        1       r1      2       90.
Cl      1       r2      2       90.     3       a1
H       1       r3      2       oop     3       a1
Variables
 r1=0.96061628 F
 r2=3.08954942 F
 r3=0.99260192
 a1=101.71720655 F
 OOP= 75.

--LINK1--

%nproc=28
%mem=120GB
%chk=/gscratch/ilahie/mccoygrp/coire_hocl/oop_s_rOH_opt/clhod/clhod_20_sp.chk
#p pop=NBO opt=(z-matrix) mp2/aug-cc-pvtz density=current

title

-1 1
O
X       1       10.
H(iso=2)        1       r1      2       90.
Cl      1       r2      2       90.     3       a1
H       1       r3      2       oop     3       a1
Variables
 r1=0.96061628 F
 r2=3.08954942 F
 r3=0.99260192
 a1=101.71720655 F
 OOP= 70.

--LINK1--

%nproc=28
%mem=120GB
%chk=/gscratch/ilahie/mccoygrp/coire_hocl/oop_s_rOH_opt/clhod/clhod_25_sp.chk
#p pop=NBO opt=(z-matrix) mp2/aug-cc-pvtz density=current

title

-1 1
O
X       1       10.
H(iso=2)        1       r1      2       90.
Cl      1       r2      2       90.     3       a1
H       1       r3      2       oop     3       a1
Variables
 r1=0.96061628 F
 r2=3.08954942 F
 r3=0.99260192
 a1=101.71720655 F
 OOP= 65.

--LINK1--

%nproc=28
%mem=120GB
%chk=/gscratch/ilahie/mccoygrp/coire_hocl/oop_s_rOH_opt/clhod/clhod_30_sp.chk
#p pop=NBO opt=(z-matrix) mp2/aug-cc-pvtz density=current

title

-1 1
O
X       1       10.
H(iso=2)        1       r1      2       90.
Cl      1       r2      2       90.     3       a1
H       1       r3      2       oop     3       a1
Variables
 r1=0.96061628 F
 r2=3.08954942 F
 r3=0.99260192
 a1=101.71720655 F
 OOP= 60.

--LINK1--

%nproc=28
%mem=120GB
%chk=/gscratch/ilahie/mccoygrp/coire_hocl/oop_s_rOH_opt/clhod/clhod_35_sp.chk
#p pop=NBO opt=(z-matrix) mp2/aug-cc-pvtz density=current

title

-1 1
O
X       1       10.
H(iso=2)        1       r1      2       90.
Cl      1       r2      2       90.     3       a1
H       1       r3      2       oop     3       a1
Variables
 r1=0.96061628 F
 r2=3.08954942 F
 r3=0.99260192
 a1=101.71720655 F
 OOP= 55.

--LINK1--

%nproc=28
%mem=120GB
%chk=/gscratch/ilahie/mccoygrp/coire_hocl/oop_s_rOH_opt/clhod/clhod_40_sp.chk
#p pop=NBO opt=(z-matrix) mp2/aug-cc-pvtz density=current

title

-1 1
O
X       1       10.
H(iso=2)        1       r1      2       90.
Cl      1       r2      2       90.     3       a1
H       1       r3      2       oop     3       a1
Variables
 r1=0.96061628 F
 r2=3.08954942 F
 r3=0.99260192
 a1=101.71720655 F
 OOP= 50.

--LINK1--

%nproc=28
%mem=120GB
%chk=/gscratch/ilahie/mccoygrp/coire_hocl/oop_s_rOH_opt/clhod/clhod_45_sp.chk
#p pop=NBO opt=(z-matrix) mp2/aug-cc-pvtz density=current

title

-1 1
O
X       1       10.
H(iso=2)        1       r1      2       90.
Cl      1       r2      2       90.     3       a1
H       1       r3      2       oop     3       a1
Variables
 r1=0.96061628 F
 r2=3.08954942 F
 r3=0.99260192
 a1=101.71720655 F
 OOP= 35.

--LINK1--

%nproc=28
%mem=120GB
%chk=/gscratch/ilahie/mccoygrp/coire_hocl/oop_s_rOH_opt/clhod/clhod_50_sp.chk
#p pop=NBO opt=(z-matrix) mp2/aug-cc-pvtz density=current

title

-1 1
O
X       1       10.
H(iso=2)        1       r1      2       90.
Cl      1       r2      2       90.     3       a1
H       1       r3      2       oop     3       a1
Variables
 r1=0.96061628 F
 r2=3.08954942 F
 r3=0.99260192
 a1=101.71720655 F
 OOP= 40.
