%nproc=28
%mem=120GB
%chk=/gscratch/ilahie/abmccoy/hocl/cl_hocl_tz.chk
# opt=(z-matrix,tight) mp2/aug-cc-pvtz freq=anh

title

-1 1
O
H	1	r1
Cl	1	r2	2	a1
Cl	1	r3	3	a2	2	d1
Variables
        r1          1.0295   
        r2          1.7206   
        r3          2.9283   
        a1        103.2872   
        a2        106.5389   
        d1         -0.0017   






