%nproc=28
%mem=120GB
%chk=/gscratch/ilahie/mccoygrp/coire_hocl/clhocl-_tz_cart.chk
#p SP mp2/aug-cc-pvtz density=current

title

-1 1
O
Cl
Cl	
H	



























