%nproc=28
%mem=120GB
%chk=/gscratch/ilahie/mccoygrp/coire_hocl/rOH_s_oop_0/clhod/clhod_rOH_s_05-20.chk
#p opt=(z-matrix) mp2/aug-cc-pvtz density=current

title

-1 1
O
X       1       10.
H(iso=2)      1       r1      2       90.
Cl      1       r2      2       90.     3       a1
H       1       r3      2       oop     3       a1
Variables
 r1=0.96061628 F
 r2=3.08954942 F
 r3=0.5 S 30 0.05
 a1=101.71720655 F
 OOP= 90. F
