%nproc=28
%mem=120GB
%chk=/gscratch/ilahie/mccoygrp/coire_hocl/rOH_s_oop_0/hod/hod_rOH_s.chk
#p opt=(z-matrix) mp2/aug-cc-pvtz density=current

title

0 1
O
H(iso=2)	1	rOD
H	1	rOH	2	aHOCl
Variables
 rOD=0.96132107 F
 rOH=0.6 s 28 0.05
 aHOCl=104.10787084 F 
   






