%nproc=28
%mem=120GB
%chk=/gscratch/ilahie/mccoygrp/coire_hocl/oop_s_rOH_f/hod_opt.chk
#p opt=(z-matrix) mp2/aug-cc-pvtz density=current

title

0 1
O
H(iso=2)	1	rOD
H	1	rOH	2	aHOCl
Variables
 rOD=1.0
 rOH=1.0 
 aHOCl=103.53015674 
   






