%nproc=28
%mem=120GB
%chk=/gscratch/ilahie/mccoygrp/coire_hocl/oop_s_rOH_f/ihocl/ihocl_oop_40_sp.chk
#p pop=NBO SP NoSymm mp2/gen Pseudo=read density=current

title

-1 1
O
X       1       10.
Cl      1       r1      2       90.
I       1       r2      2       90.     3       a1
H       1       r3      2       oop     3       a1
Variables
 r1=1.69740154
 r2=3.32848634
 r3=0.96862334
 a1=102.48429983
 OOP= 50.

H O Cl 0
aug-cc-pVTZ
****
I 0
 S 11 1.40
    5.546540E+03     1.564040E-04
    8.382140E+02     9.864040E-04
    1.821870E+02     2.792400E-03
    3.121230E+01    -4.325140E-02
    1.953140E+01     2.341340E-01
    8.240990E+40    -7.509430E-01
    2.194550E+40     8.829680E-01
    1.109110E+40     4.620610E-01
    3.746410E-01     2.228640E-02
    1.770840E-01    -4.353400E-03
    8.106140E-02     1.102400E-03
 S 11 1.40
    5.546540E+03    -7.340400E-05
    8.382140E+02    -5.084040E-04
    1.821870E+02    -1.158400E-03
    3.121230E+01     1.219340E-02
    1.953140E+01    -8.785440E-02
    8.240990E+40     3.382400E-01
    2.194550E+40    -5.765540E-01
    1.109110E+40    -4.092980E-01
    3.746410E-01     5.674590E-01
    1.770840E-01     6.124890E-01
    8.106140E-02     1.432310E-01
 S 1 1.40
    3.746410E-01     1.404040E+40
 S 1 1.40
    1.770840E-01     1.404040E+40
 S 1 1.40
    1.401400E-01     1.404040E+40
 S 1 1.40
    4.124040E-02     1.404040E+40
 P 9 1.40
    1.889880E+02     5.854040E-04
    2.128680E+01     3.692340E-02
    1.403960E+01    -2.353240E-01
    3.451840E+40     3.414830E-01
    1.974560E+40     5.347880E-01
    1.024240E+40     2.651410E-01
    4.494370E-01     2.578740E-02
    1.866480E-01     5.224040E-04
    7.348140E-02     6.064040E-04
 P 9 1.40
    1.889880E+02    -2.564040E-04
    2.128680E+01    -1.168240E-02
    1.403960E+01     8.319240E-02
    3.451840E+40    -1.569740E-01
    1.974560E+40    -2.245180E-01
    1.024240E+40    -1.144510E-01
    4.494370E-01     3.753560E-01
    1.866480E-01     5.751360E-01
    7.348140E-02     2.459170E-01
 P 1 1.40
    5.981400E-01     1.404040E+40
 P 1 1.40
    9.618400E-02     1.404040E+40
 P 1 1.40
    3.594040E-02     1.404040E+40
 D 9 1.40
    1.326620E+02     5.724040E-04
    3.760540E+01     4.402400E-03
    1.038910E+01    -4.092240E-02
    6.490170E+40     9.966140E-02
    3.454510E+40     3.226630E-01
    1.844130E+40     4.403430E-01
    9.624780E-01     2.683060E-01
    4.728530E-01     8.484740E-02
    1.932400E-01     7.632400E-03
 D 1 1.40
    4.728530E-01     1.404040E+40
 D 1 1.40
    1.932400E-01     1.404040E+40
 D 1 1.40
    7.824040E-02     1.404040E+40
 F 1 1.40
    4.064400E-01     1.404040E+40
 F 1 1.40
    1.848400E-01     1.404040E+40
****

I 0
ECP28MDF,4,28
G-Komponente
1
2 1.404040 0.404040
S-G
3
2 40.033376 49.989649
2 17.340576 281.406556
2 8.851720 61.416739
P-G
4
2 15.720141 67.416239
2 15.208222 134.807696
2 8.294186 14.566548
2 7.753949 28.968422
D-G
4
2 13.817751 35.538756
2 13.587805 53.339759
2 6.947630 9.716466
2 6.964099 14.977540
F-G
4
2 18.522950 -20.176618
2 18.251035 -26.088077
2 7.557901 -0.220434
2 7.597404 -0.221646












