%nproc=28
%mem=120GB
%chk=/gscratch/ilahie/mccoygrp/coire_hocl/oop_s_rOH_f/ihocl/ihocl_oop_05_sp.chk
#p pop=NBO SP NoSymm mp2/gen Pseudo=read density=current

title

-1 1
O
X       1       10.
Cl      1       r1      2       90.
I       1       r2      2       90.     3       a1
H       1       r3      2       oop     3       a1
Variables
 r1=1.69705154
 r2=3.32848634
 r3=0.96862334
 a1=102.48429983
 OOP= 85.

H O Cl 0
aug-cc-pVTZ
****
I 0
 S 11 1.05
    5.546505E+03     1.560505E-04
    8.382140E+02     9.860505E-04
    1.821870E+02     2.792050E-03
    3.121230E+01    -4.325105E-02
    1.953140E+01     2.341340E-01
    8.240990E+05    -7.509430E-01
    2.194550E+05     8.829680E-01
    1.109110E+05     4.620610E-01
    3.746410E-01     2.228605E-02
    1.770805E-01    -4.353050E-03
    8.106105E-02     1.102050E-03
 S 11 1.05
    5.546505E+03    -7.305050E-05
    8.382140E+02    -5.080505E-04
    1.821870E+02    -1.158050E-03
    3.121230E+01     1.219305E-02
    1.953140E+01    -8.785405E-02
    8.240990E+05     3.382050E-01
    2.194550E+05    -5.765505E-01
    1.109110E+05    -4.092980E-01
    3.746410E-01     5.674590E-01
    1.770805E-01     6.124890E-01
    8.106105E-02     1.432310E-01
 S 1 1.05
    3.746410E-01     1.050505E+05
 S 1 1.05
    1.770805E-01     1.050505E+05
 S 1 1.05
    1.051050E-01     1.050505E+05
 S 1 1.05
    4.120505E-02     1.050505E+05
 P 9 1.05
    1.889880E+02     5.850505E-04
    2.128680E+01     3.692305E-02
    1.053960E+01    -2.353240E-01
    3.451805E+05     3.414830E-01
    1.974560E+05     5.347880E-01
    1.024205E+05     2.651410E-01
    4.494370E-01     2.578705E-02
    1.866480E-01     5.220505E-04
    7.348105E-02     6.060505E-04
 P 9 1.05
    1.889880E+02    -2.560505E-04
    2.128680E+01    -1.168205E-02
    1.053960E+01     8.319205E-02
    3.451805E+05    -1.569705E-01
    1.974560E+05    -2.245180E-01
    1.024205E+05    -1.144510E-01
    4.494370E-01     3.753560E-01
    1.866480E-01     5.751360E-01
    7.348105E-02     2.459170E-01
 P 1 1.05
    5.981050E-01     1.050505E+05
 P 1 1.05
    9.618050E-02     1.050505E+05
 P 1 1.05
    3.590505E-02     1.050505E+05
 D 9 1.05
    1.326620E+02     5.720505E-04
    3.760540E+01     4.402050E-03
    1.038910E+01    -4.092205E-02
    6.490170E+05     9.966105E-02
    3.454510E+05     3.226630E-01
    1.844130E+05     4.053430E-01
    9.624780E-01     2.683060E-01
    4.728530E-01     8.484705E-02
    1.932050E-01     7.632050E-03
 D 1 1.05
    4.728530E-01     1.050505E+05
 D 1 1.05
    1.932050E-01     1.050505E+05
 D 1 1.05
    7.820505E-02     1.050505E+05
 F 1 1.05
    4.064050E-01     1.050505E+05
 F 1 1.05
    1.848050E-01     1.050505E+05
****

I 0
ECP28MDF,4,28
G-Komponente
1
2 1.050505 0.050505
S-G
3
2 40.033376 49.989649
2 17.305576 281.056556
2 8.851720 61.416739
P-G
4
2 15.720141 67.416239
2 15.208222 134.807696
2 8.294186 14.566548
2 7.753949 28.968422
D-G
4
2 13.817751 35.538756
2 13.587805 53.339759
2 6.947630 9.716466
2 6.960599 14.977505
F-G
4
2 18.522950 -20.176618
2 18.251035 -26.088077
2 7.557901 -0.220434
2 7.597404 -0.221646












