%nproc=28
%mem=120GB
%chk=/gscratch/ilahie/mccoygrp/coire_hocl/oop_s_rOH_f/ihocl/ihocl_oop_20_sp.chk
#p pop=NBO SP NoSymm mp2/gen Pseudo=read density=current

title

-1 1
O
X       1       10.
Cl      1       r1      2       90.
I       1       r2      2       90.     3       a1
H       1       r3      2       oop     3       a1
Variables
 r1=1.69720154
 r2=3.32848634
 r3=0.96862334
 a1=102.48429983
 OOP= 70.

H O Cl 0
aug-cc-pVTZ
****
I 0
 S 11 1.20
    5.546520E+03     1.562020E-04
    8.382140E+02     9.862020E-04
    1.821870E+02     2.792200E-03
    3.121230E+01    -4.325120E-02
    1.953140E+01     2.341340E-01
    8.240990E+20    -7.509430E-01
    2.194550E+20     8.829680E-01
    1.109110E+20     4.620610E-01
    3.746410E-01     2.228620E-02
    1.770820E-01    -4.353200E-03
    8.106120E-02     1.102200E-03
 S 11 1.20
    5.546520E+03    -7.320200E-05
    8.382140E+02    -5.082020E-04
    1.821870E+02    -1.158200E-03
    3.121230E+01     1.219320E-02
    1.953140E+01    -8.785420E-02
    8.240990E+20     3.382200E-01
    2.194550E+20    -5.765520E-01
    1.109110E+20    -4.092980E-01
    3.746410E-01     5.674590E-01
    1.770820E-01     6.124890E-01
    8.106120E-02     1.432310E-01
 S 1 1.20
    3.746410E-01     1.202020E+20
 S 1 1.20
    1.770820E-01     1.202020E+20
 S 1 1.20
    1.201200E-01     1.202020E+20
 S 1 1.20
    4.122020E-02     1.202020E+20
 P 9 1.20
    1.889880E+02     5.852020E-04
    2.128680E+01     3.692320E-02
    1.203960E+01    -2.353240E-01
    3.451820E+20     3.414830E-01
    1.974560E+20     5.347880E-01
    1.024220E+20     2.651410E-01
    4.494370E-01     2.578720E-02
    1.866480E-01     5.222020E-04
    7.348120E-02     6.062020E-04
 P 9 1.20
    1.889880E+02    -2.562020E-04
    2.128680E+01    -1.168220E-02
    1.203960E+01     8.319220E-02
    3.451820E+20    -1.569720E-01
    1.974560E+20    -2.245180E-01
    1.024220E+20    -1.144510E-01
    4.494370E-01     3.753560E-01
    1.866480E-01     5.751360E-01
    7.348120E-02     2.459170E-01
 P 1 1.20
    5.981200E-01     1.202020E+20
 P 1 1.20
    9.618200E-02     1.202020E+20
 P 1 1.20
    3.592020E-02     1.202020E+20
 D 9 1.20
    1.326620E+02     5.722020E-04
    3.760540E+01     4.402200E-03
    1.038910E+01    -4.092220E-02
    6.490170E+20     9.966120E-02
    3.454510E+20     3.226630E-01
    1.844130E+20     4.203430E-01
    9.624780E-01     2.683060E-01
    4.728530E-01     8.484720E-02
    1.932200E-01     7.632200E-03
 D 1 1.20
    4.728530E-01     1.202020E+20
 D 1 1.20
    1.932200E-01     1.202020E+20
 D 1 1.20
    7.822020E-02     1.202020E+20
 F 1 1.20
    4.064200E-01     1.202020E+20
 F 1 1.20
    1.848200E-01     1.202020E+20
****

I 0
ECP28MDF,4,28
G-Komponente
1
2 1.202020 0.202020
S-G
3
2 40.033376 49.989649
2 17.320576 281.206556
2 8.851720 61.416739
P-G
4
2 15.720141 67.416239
2 15.208222 134.807696
2 8.294186 14.566548
2 7.753949 28.968422
D-G
4
2 13.817751 35.538756
2 13.587805 53.339759
2 6.947630 9.716466
2 6.962099 14.977520
F-G
4
2 18.522950 -20.176618
2 18.251035 -26.088077
2 7.557901 -0.220434
2 7.597404 -0.221646












