%nproc=28
%mem=120GB
%chk=/gscratch/ilahie/mccoygrp/coire_hocl/oop_s_rOH_f/ihocl/ihocl_oop_50_sp.chk
#p pop=NBO SP NoSymm mp2/gen Pseudo=read density=current

title

-1 1
O
X       1       10.
Cl      1       r1      2       90.
I       1       r2      2       90.     3       a1
H       1       r3      2       oop     3       a1
Variables
 r1=1.69750154
 r2=3.32848634
 r3=0.96862334
 a1=102.48429983
 OOP= 40.

H O Cl 0
aug-cc-pVTZ
****
I 0
 S 11 1.50
    5.546550E+03     1.565050E-04
    8.382140E+02     9.865050E-04
    1.821870E+02     2.792500E-03
    3.121230E+01    -4.325150E-02
    1.953140E+01     2.341340E-01
    8.240990E+50    -7.509430E-01
    2.194550E+50     8.829680E-01
    1.109110E+50     4.620610E-01
    3.746410E-01     2.228650E-02
    1.770850E-01    -4.353500E-03
    8.106150E-02     1.102500E-03
 S 11 1.50
    5.546550E+03    -7.350500E-05
    8.382140E+02    -5.085050E-04
    1.821870E+02    -1.158500E-03
    3.121230E+01     1.219350E-02
    1.953140E+01    -8.785450E-02
    8.240990E+50     3.382500E-01
    2.194550E+50    -5.765550E-01
    1.109110E+50    -4.092980E-01
    3.746410E-01     5.674590E-01
    1.770850E-01     6.124890E-01
    8.106150E-02     1.432310E-01
 S 1 1.50
    3.746410E-01     1.505050E+50
 S 1 1.50
    1.770850E-01     1.505050E+50
 S 1 1.50
    1.501500E-01     1.505050E+50
 S 1 1.50
    4.125050E-02     1.505050E+50
 P 9 1.50
    1.889880E+02     5.855050E-04
    2.128680E+01     3.692350E-02
    1.503960E+01    -2.353240E-01
    3.451850E+50     3.414830E-01
    1.974560E+50     5.347880E-01
    1.024250E+50     2.651410E-01
    4.494370E-01     2.578750E-02
    1.866480E-01     5.225050E-04
    7.348150E-02     6.065050E-04
 P 9 1.50
    1.889880E+02    -2.565050E-04
    2.128680E+01    -1.168250E-02
    1.503960E+01     8.319250E-02
    3.451850E+50    -1.569750E-01
    1.974560E+50    -2.245180E-01
    1.024250E+50    -1.144510E-01
    4.494370E-01     3.753560E-01
    1.866480E-01     5.751360E-01
    7.348150E-02     2.459170E-01
 P 1 1.50
    5.981500E-01     1.505050E+50
 P 1 1.50
    9.618500E-02     1.505050E+50
 P 1 1.50
    3.595050E-02     1.505050E+50
 D 9 1.50
    1.326620E+02     5.725050E-04
    3.760540E+01     4.402500E-03
    1.038910E+01    -4.092250E-02
    6.490170E+50     9.966150E-02
    3.454510E+50     3.226630E-01
    1.844130E+50     4.503430E-01
    9.624780E-01     2.683060E-01
    4.728530E-01     8.484750E-02
    1.932500E-01     7.632500E-03
 D 1 1.50
    4.728530E-01     1.505050E+50
 D 1 1.50
    1.932500E-01     1.505050E+50
 D 1 1.50
    7.825050E-02     1.505050E+50
 F 1 1.50
    4.064500E-01     1.505050E+50
 F 1 1.50
    1.848500E-01     1.505050E+50
****

I 0
ECP28MDF,4,28
G-Komponente
1
2 1.505050 0.505050
S-G
3
2 40.033376 49.989649
2 17.350576 281.506556
2 8.851720 61.416739
P-G
4
2 15.720141 67.416239
2 15.208222 134.807696
2 8.294186 14.566548
2 7.753949 28.968422
D-G
4
2 13.817751 35.538756
2 13.587805 53.339759
2 6.947630 9.716466
2 6.965099 14.977550
F-G
4
2 18.522950 -20.176618
2 18.251035 -26.088077
2 7.557901 -0.220434
2 7.597404 -0.221646












