%nproc=28
%mem=120GB
%chk=/gscratch/ilahie/mccoygrp/coire_hocl/clhocl-_tz.chk
#p opt=(z-matrix,tight) mp2/aug-cc-pvtz density=current

title

-1 1
O
X	1	10.
Cl	1	r2	2	90.
Cl	1	r3	2	90.	3	a2
H	1	r1	2	oop	3	a1
Variables
 r1=1.01772752
 r2=1.68499987 F
 r3=3.07067241 F
 a1=103.50790746 F
 a2=106.18683755 F
 OOP= 90. F  






