%nproc=28
%mem=120GB
%chk=/gscratch/ilahie/mccoygrp/coire_hocl/clhocl/clhocl_10_sp.chk
#p pop=NBO SP NoSymm mp2/aug-cc-pvtz density=current

title

-1 1
O 0. 0. 0.
Cl 2.904676 0. 0.
Cl -0.3936866 1.63604860 0.
H 1.007999976 0. 0.177737592




























