%nproc=28
%mem=120GB
%chk=/gscratch/ilahie/mccoygrp/coire_hocl/clhocl/clhocl_15_sp.chk
#p SP NoSymm mp2/aug-cc-pvtz density=current

title

-1 1
O 0. 0. 0.
Cl 2.904676 0. 0.
Cl -0.3936866 1.63604860 0.
H 0.9933832 0. 0.26617623





























