%nproc=28
%mem=120GB
%chk=/gscratch/ilahie/mccoygrp/coire_hocl/rOH_s_oop_0/brhocl/brhocl_rOH_s_05-20.chk
#p opt=(z-matrix) mp2/aug-cc-pvtz density=current

title

-1 1
O
X       1       10.
Cl      1       r1      2       90.
Br      1       r2      2       90.     3       a1
H       1       r3      2       oop     3       a1
Variables
 r1=1.68432554 F
 r2=3.07381752 F
 r3=0.6 s 28 0.05
 a1=103.42035185 F
 OOP= 90. F
