%nproc=28
%mem=120GB
%chk=/gscratch/ilahie/mccoygrp/coire_hocl/clhocl/clhocl_0_opt.chk
#p opt=(z-matrix) mp2/aug-cc-pvtz density=current

title

-1 1
O
X	1	10.
Cl	1	r1	2	90.
Cl	1	r2	2	90.	3	a1
H	1	r3	2	oop	3	a1
Variables
 r1=1.68499987 
 r2=3.07067241 
 r3=1.01772752
 a1=103.50790746 
 OOP= 90.   






