%nproc=28
%mem=120GB
%chk=/gscratch/ilahie/mccoygrp/coire_hocl/oop_s_rOH_f/hocl_opt.chk
#p opt=(z-matrix) mp2/aug-cc-pvtz density=current

title

0 1
O
Cl	1	rOCl
H	1	rOH	2	aHOCl
Variables
 rOCl=1.6
 rOH=1.0 
 aHOCl=103.53015674 
   






