%nproc=28
%mem=120GB
%chk=/gscratch/ilahie/mccoygrp/coire_hocl/brhocl/brhocl_45_sp.chk
#p pop=NBO SP NoSymm mp2/aug-cc-pvtz density=current

title

-1 1
O 0. 0. 0.
Br 3.07381747 0. 0.
Cl -0.390920758 1.638332522 0.
H 0.69419501 0. 0.69419501




























