%nproc=28
%mem=120GB
%chk=/gscratch/ilahie/mccoygrp/coire_hocl/rOH_s_oop_0/hocl/hocl_rOH_s.chk
#p opt=(z-matrix) mp2/aug-cc-pvtz density=current

title

0 1
O
Cl	1	rOCl
H	1	rOH	2	aHOCl
Variables
 rOCl=1.69700154 F
 rOH=0.6 s 28 0.05
 aHOCl=102.48429983 F 
   






